228
800 193 31889 91882 95933 55601 53452 32418 81327 86786 8524 33604 22322 88465 66214 13809 47417 33533 9405 87644 12531 57090 12135 61120 23496 45873 97798 80315 19411 34323 79205 75613 86377 76739 82013 87434 5006 80015 67120 89666 29180 83110 4346 57895 52229 95386 9874 58238 36489 76689 29633 99130 99896 97981 28700 54492 69870 15355 4590 98547 49096 6584 75368 24860 61212 3150 71972 98314 74126 97928 80521 19780 52663 35972 63600 39377 34562 29153 90783 70554 72790 71464 6926 76259 52502 52002 54300 16168 9806 63568 91511 34969 18817 39372 15946 93792 87160 82165 10559 18885 28720 16795 5306 32309 20226 52338 35424 26064 33390 99757 13834 48097 38638 24644 1962 46297 63047 19677 41004 63268 50087 71131 1464 98519 43621 34773 29336 4571 84890 6097 23487 10756 36264 88223 97398 74722 86272 35027 25853 16964 92456 14985 2408 66395 91061 73448 16581 36842 8390 38387 25308 44271 4432 69427 87724 53610 35144 43313 49809 26010 6146 52936 54497 38515 91062 37388 40260 72589 30310 5527 67621 56729 76511 95001 81595 42186 48412 54811 22284 26037 19397 92194 38723 82041 10207 47744 18773 3842 97442 69897 67218 12357 29190 91443 63487 9808 3268 19835 99142 41525 67899 64243 62409 86286 45006 97736 20389 784 92232 4975 24118 86079 41549 48080 76475 21675 83673 70185 32659 430 81733 18082 71562 13321 92262 35861 83526 88113 